<number of tasks>
250

<cycle time>
1000

<order strength>
0.895


<task times>
1 532
2 531
3 772
4 601
5 357
6 348
7 566
8 655
9 527
10 562
11 635
12 635
13 383
14 401
15 419
16 454
17 453
18 413
19 426
20 563
21 716
22 445
23 326
24 741
25 656
26 466
27 409
28 405
29 596
30 545
31 363
32 282
33 456
34 487
35 637
36 441
37 269
38 482
39 390
40 405
41 523
42 612
43 360
44 556
45 505
46 262
47 597
48 672
49 434
50 552
51 370
52 500
53 608
54 441
55 522
56 422
57 449
58 646
59 564
60 405
61 443
62 451
63 547
64 417
65 465
66 547
67 508
68 588
69 576
70 498
71 659
72 693
73 347
74 587
75 596
76 397
77 384
78 136
79 499
80 513
81 535
82 453
83 412
84 495
85 348
86 305
87 653
88 461
89 478
90 576
91 472
92 459
93 573
94 487
95 513
96 617
97 561
98 259
99 648
100 595
101 577
102 486
103 296
104 522
105 326
106 691
107 453
108 544
109 461
110 465
111 702
112 657
113 278
114 506
115 498
116 588
117 321
118 428
119 579
120 482
121 345
122 549
123 465
124 451
125 516
126 800
127 495
128 457
129 423
130 337
131 420
132 455
133 501
134 429
135 562
136 702
137 454
138 329
139 424
140 511
141 542
142 438
143 728
144 517
145 540
146 512
147 462
148 452
149 597
150 411
151 643
152 655
153 529
154 453
155 288
156 462
157 508
158 305
159 366
160 475
161 753
162 553
163 504
164 546
165 763
166 444
167 347
168 449
169 581
170 425
171 368
172 163
173 502
174 599
175 489
176 594
177 573
178 411
179 476
180 525
181 706
182 470
183 433
184 395
185 661
186 525
187 577
188 505
189 399
190 692
191 437
192 378
193 586
194 405
195 356
196 580
197 537
198 560
199 563
200 519
201 439
202 502
203 827
204 348
205 398
206 574
207 703
208 292
209 544
210 341
211 606
212 367
213 606
214 565
215 261
216 352
217 578
218 356
219 645
220 760
221 660
222 409
223 422
224 537
225 462
226 529
227 335
228 405
229 527
230 404
231 711
232 373
233 641
234 153
235 532
236 497
237 526
238 341
239 537
240 464
241 624
242 243
243 329
244 519
245 375
246 632
247 628
248 407
249 528
250 336

<precedence relations>
1,7
2,6
2,7
2,8
2,9
2,10
3,6
3,7
3,10
4,6
4,7
4,8
4,9
4,10
5,6
5,7
5,8
5,9
5,10
6,11
6,12
6,13
6,14
6,15
6,16
7,11
7,12
7,13
7,14
7,16
8,11
8,12
8,13
8,14
8,15
8,16
9,11
9,12
9,13
9,14
9,15
9,16
10,11
10,12
10,13
10,14
10,15
10,16
11,17
11,18
11,19
12,18
12,20
12,21
13,17
13,18
14,17
14,18
14,19
14,21
15,24
15,25
16,17
16,18
16,19
16,20
16,21
17,22
17,23
17,24
17,25
18,22
18,23
18,24
18,25
19,22
19,23
19,24
19,25
20,22
20,23
20,24
20,25
21,22
21,23
21,24
21,25
22,26
22,27
22,28
22,29
23,26
23,27
23,28
23,29
24,26
24,27
24,28
24,29
25,26
25,27
25,28
25,29
26,30
26,31
26,32
26,33
26,34
27,30
27,31
27,32
27,33
27,34
28,30
28,31
28,32
28,33
28,34
29,30
29,31
29,32
29,33
29,34
30,35
30,36
30,37
30,38
31,35
31,36
31,37
31,38
32,35
32,36
32,37
32,38
33,35
33,36
33,37
33,38
34,35
34,36
34,37
34,38
35,39
35,40
35,41
35,42
36,39
36,40
36,41
36,42
37,39
37,40
37,41
37,42
38,39
38,40
38,41
38,42
39,43
40,43
41,43
42,43
43,44
43,45
43,46
43,47
43,48
44,49
44,50
44,51
44,52
44,53
45,49
45,50
45,51
45,52
45,53
46,49
46,50
46,51
46,52
46,53
47,49
47,50
47,51
47,52
47,53
48,49
48,50
48,51
48,52
48,53
49,54
49,55
49,56
49,57
50,54
50,55
50,56
50,57
51,54
51,55
51,56
51,57
52,54
52,55
52,56
53,54
53,55
54,61
54,70
55,58
56,58
57,58
57,59
58,60
58,61
58,62
58,65
58,66
59,60
59,61
59,62
59,63
59,64
59,65
59,66
60,67
61,67
61,68
61,69
62,67
62,68
62,69
62,70
63,67
63,68
63,70
64,67
64,68
64,69
64,70
65,67
65,68
65,69
65,70
66,67
66,68
66,69
66,70
67,71
67,72
67,73
67,74
67,75
68,71
68,72
68,74
68,75
69,71
69,72
69,73
69,74
69,75
70,71
70,72
70,73
70,74
70,75
71,76
71,77
71,78
71,80
72,161
72,166
72,167
73,76
74,79
74,83
75,76
75,77
76,81
76,82
76,83
76,84
77,81
77,82
77,83
77,84
77,85
78,85
78,170
79,98
80,84
80,98
81,86
81,87
81,88
82,86
82,87
82,88
83,86
83,87
83,88
84,86
84,100
84,102
84,103
85,223
86,91
87,89
87,90
87,91
88,89
88,90
88,91
89,92
89,93
89,94
89,95
90,92
90,93
90,94
90,95
91,93
91,95
91,99
92,96
92,97
92,98
93,96
94,96
94,98
95,117
96,101
96,107
97,99
97,100
97,101
97,102
97,103
98,99
98,100
98,101
98,102
98,103
99,106
99,107
100,104
100,134
101,104
101,105
101,108
101,124
101,125
102,104
102,107
103,104
103,105
104,109
104,122
105,176
105,185
105,186
106,109
106,120
107,109
107,110
107,111
107,112
108,109
108,110
109,121
110,113
110,114
110,128
111,117
111,131
112,114
112,115
113,116
113,118
114,116
114,117
115,119
115,120
116,123
117,121
117,129
118,121
118,129
118,131
119,124
119,125
120,122
120,127
121,126
121,127
121,130
122,138
122,167
122,174
123,126
123,127
123,131
124,126
124,128
124,129
125,151
125,157
126,132
127,132
127,135
127,139
128,134
128,138
129,132
129,133
129,134
129,135
130,149
131,145
132,136
132,137
132,138
132,140
133,141
134,136
134,137
134,139
135,136
135,137
135,140
136,141
136,142
136,143
136,144
136,145
137,142
137,152
138,208
139,141
139,154
140,141
141,146
141,149
142,146
142,148
143,163
143,168
144,164
144,183
145,146
145,147
145,148
145,149
145,150
146,181
146,218
147,151
147,154
147,163
148,151
148,153
148,154
149,151
149,152
149,153
150,152
150,153
151,155
151,158
151,164
151,165
152,155
152,173
153,156
153,157
154,212
155,160
155,166
156,159
156,162
156,163
156,164
156,165
157,200
158,159
158,161
158,162
159,169
159,174
160,167
160,174
161,168
161,169
161,172
162,167
162,168
162,170
163,167
164,196
164,217
166,194
166,222
166,224
167,171
168,174
169,171
169,173
170,171
170,172
170,174
171,175
172,175
173,175
174,175
175,176
175,177
175,178
175,179
175,180
176,181
176,182
177,183
177,184
177,191
178,185
179,181
179,182
180,187
181,202
181,205
182,187
183,192
183,202
184,186
185,187
185,190
186,188
186,189
186,190
186,202
187,191
187,192
187,193
188,203
189,200
190,194
190,197
190,209
191,194
191,196
191,229
192,194
192,195
192,197
194,198
194,212
194,227
195,200
195,204
196,202
197,199
197,201
198,207
199,203
200,205
200,221
201,204
201,206
201,207
201,229
202,212
203,210
204,211
205,207
205,208
205,209
206,216
207,225
207,239
208,235
209,212
209,213
209,215
210,212
211,214
211,216
211,237
212,233
212,236
212,250
213,219
214,218
214,221
215,217
215,220
217,222
217,243
218,223
218,224
219,224
219,225
221,223
221,233
222,227
222,229
222,230
224,227
224,233
225,226
225,228
225,240
227,235
228,236
228,237
229,232
229,234
230,231
230,233
232,246
233,238
234,239
235,240
236,245
237,241
241,242
241,243
241,244
241,245
242,246
243,248
244,247
244,249
244,250

<end>
